Na Cl 
 1.0000000000000000
    25.0000000000000000    0.0000000000000000    0.0000000000000000
     0.0000000000000000   25.0000000000000000    0.0000000000000000
     0.0000000000000000    0.0000000000000000   25.0000000000000000
 6000 6000
Cartesian
  7.7523037012444354  8.9841534076184750 18.3326436874143042
 16.7424543722264723  7.7153170051590152 17.6658114151404284
  9.2924542651942250  1.6394175596718759  7.3818508104336686
 16.7665709586658380 10.3790511483694665  6.4253012912465728
 15.0388019811542701  3.5724486299196485  9.2882461190634622
  7.5525230996089627  5.1278675639200344 18.1402936080192632
  8.9146699797896058  1.9291751619564252 22.2938940032822508
 18.4765131648054890  4.8783804429128681  6.8802080731281121
 10.6570850641732502  6.8143367799065713  7.1165197794868238
  7.3479338350463346 10.8619828118765653 14.6902384188446398
 23.8371055218563903  2.6162529201788143 17.7256588906634889
 15.1489753812313879  4.4146161779829374 17.9082067184654115
  8.2303172481387463  0.9709947339589683 14.0169872967605418
  8.5054966544292387  0.9411354961065275 10.3285661248157581
 17.2108597784353705  6.4601480816305372  1.4176159288816228
  0.8709167134346983  6.2486013484879397 15.4857280736256993
 18.6317334271183839  9.2718547893557020 14.1268894025715497
  5.6301890200144564  0.7934296914811385 20.3456494469873839
 24.3302555169585446  9.3022367611072205 10.3864878580842568
 15.7014308221179206  9.4739136679442204  6.1340342770023435
 19.7140935783805773  4.8853859211715802 17.3623542615037216
  9.0880730930194602  9.1222371890313170  9.8808720986735423
 17.8173624062060192  3.2049805522919543  7.2162847417482565
  9.0976545629546290  2.1401197892334869 12.9865952944320604
 15.7071135196402256  7.2284622966444401  2.5316394062394458
 24.2635006663685218 10.8278498278594810 17.3441136685871093
  2.5184279435865711  1.1092239297503717 10.4531746289940433
 11.5059895028853738  3.0827874972404854 24.8189322416758777
  6.7941858464824891  7.4407609156057060 13.7374171701899801
  9.7703793830100345  5.3831451248299080 24.0402260325105068
 19.0789284040587610  4.7748435078071632  1.5896714299869126
 17.6077237900382499  4.0068695864206507 11.9142779437425901
 18.2694004817257643  1.9069481824557057  0.1562050660868199
  0.3385457211819224  7.4689679522854133 11.8887481218617168
 14.1896841298740757  5.5105853967883558  7.8175276437855921
 14.1871091044447901  8.8713592017867402  1.8682088595201300
 23.9863019548292762  6.3884774078095692 17.2795861108599169
 18.0037652226182487  7.1410482724388356 14.1966297590158081
  2.7563597786968383  0.5694002788837069 14.8209743969240115
 21.1166891018472107  4.0968673730254483 12.0998768774326315
 12.6306790102416073  4.4110625653579190 23.4570719410931119
 18.0081139518917119  6.1855947220165257 22.5809858634979399
 18.6294078098746994  2.2285302820282666  9.8169000981454264
 17.6399495301954197 12.3158769972230679 10.8893846561617149
 17.8879161099381356  8.6030298651210177  7.2458861778703918
  6.6089914676775194  1.1597986280265258 10.4710824836376499
 12.4833024979956928  3.4325419068022360  6.4636552503628915
  9.6537928491149998  0.6482075378988905 13.8481789333038865
 21.3433320384208720  8.6907848698044123  7.0426136055228366
 15.2068680223109514  3.4154254900829053  6.1124236467817905
  6.5042314615585992  8.3090872076847990  1.6573991168557660
  5.9069569948627416  1.6131063290467051 22.9561445759405132
 23.9218878321917217  2.5843978231234468 21.9484264715334518
 12.2037070627341553  3.8523016864677433 16.2688889267243866
  6.2161914567538492  0.2649068309762081  4.5782164342599998
 21.0836106078157250  1.1217427794457147  6.2617882882532605
 16.8757606725561260  2.9548118253959399 23.0446988591201141
 12.2537252317432905 11.6799849547352572 11.0142684709347165
 16.8101909997920451  1.9400667524617479 13.4038172491843888
  2.9565070420301089  7.5069277000180108 12.8677084054181847
 17.5751698634471580  5.4399474782123916  8.3945326313350979
 11.9099348489707033 10.1375033253047171 12.0367767927408114
  2.1075555948110090 10.8434409943145891 16.4255828905969778
 14.7716422634067204  8.4957605383804804  1.4947371215069374
 22.0468011670963833  7.7936076944664157 24.3290417940956729
 23.2054333659845575  6.8592910512160934 18.2093955777629262
 20.3114754614939343 12.4840406642686759 13.5428887272919027
 15.3308395949801621  7.7105364157867324  6.9710802552155586
 12.9458494079047117  2.9454993272412100 10.0143858860313824
 11.7835865294484368 10.8694002199309878 14.0189927602275244
 17.2113211439975196 10.3372335831342426  0.7696634744152722
 10.7340144974803628  3.2908295762216806 17.9453751155852217
  7.9195676408333551  2.0866697431014245 16.3167446112803844
 10.5266817894422822 10.9704175782252182  9.6164744624944749
 24.0862911446421819  9.1476340005861765 13.5692957036985522
  9.1528920615803884  3.8284394907897519 14.1650434067310034
 21.8845369279778268  6.7060742616681726 17.9802317139600554
 18.7544165266465477  2.7392816742599391  3.2141985735922112
 21.0354263642967787  8.7054523679918852  0.0758976792338759
  0.6122948837523791  7.9200556131173192 24.7493793255413799
 12.8183243739504018  6.2888764921989653 19.2944087760031273
  6.1282982845456795 11.6546341796194355  8.8733137277296343
  8.7838219519629259  2.3477733204363722 18.0523931482119444
  6.5716419981660517 12.2935315884153979  9.7708129951594458
 18.0540096448054577  4.3700501226680588 19.8648233641240850
 18.0862808335042935  0.5609843533304447  6.9280528495684512
 14.7842426969596374  1.8835039003209695 12.1001053890679522
 16.4712740650732421  3.8516058429850295 17.8788060987735200
 14.0941020865431526  2.2868842653869113 21.3276967156341755
  4.5986996635788584  7.6726228849369207  7.5456542696550732
 19.8113100928307091  9.3443651028649732  1.4885677031653783
 18.3573871005128062  3.8024991593800945 17.2067434025028483
 18.7363658653275884  1.0505492803876053 13.1635109489613740
 14.1285191937948191  4.0110450547705616  2.2684710576517837
  1.1930659535308676  0.9297404966455607  2.2970542438780210
  6.5906768578992576  9.7529753564172310 11.5136306088015576
  9.5896421277847335 11.5576208390098163 22.8668824759623419
 23.6937734990817397 10.6255995333779616 18.9027149667510344
 22.9304461846735528  8.5045129042139802 20.6967622487325045
  0.4831144472039838  9.8522570786775354 23.7694426666802947
 18.0228988956766685  5.4308698188657267  3.2580913525345228
  8.7413620477269216  8.0359680731948302 21.0308123710708763
 14.8635205881965913  5.5952629100509279  4.1674584518966533
 17.4742010270590882  6.9483308910617287 11.1945721489352046
 22.1741071539810441  2.6094684796917571 14.6734763587235832
 17.1171610672572427  6.5630286962553059  9.6465959258594527
  5.3377259198286220  5.5797672798297215  8.2973441962606014
  3.4639065519272845  8.9387091209360907 15.7683911457510622
 19.3499866381054666  7.6127133193019381 18.7455150153234200
  5.8708625407288144 10.7933610145903014  8.0371444383809081
  5.2865758679279011  0.7403061321192915  9.6503250578652722
 18.0132475416237696 11.8257160353594077  9.6188125711022003
 13.3828825146811461  0.5532121230164599 20.6723030752839065
 14.3977862966236607  4.2971436769222580 19.1875560647750092
 10.2547806735405604  1.0493900981030380 24.1987576355220568
  8.5195802191829220  6.7923719036823007 18.7891703768582872
 14.5865238572408096  2.8532343231389459  8.6185379925270276
  1.7680404017530571  7.7275161318143439  2.7272548073563980
 11.9715472389811417  2.8972227780135458 12.2464601473167818
  1.2556959531529321  2.2409423206657832  2.0351668596431458
  5.0494100223525473  7.7171228396320357  3.3671313912454677
 16.3772926625689941  1.5788898985268967 22.8050490831048442
  9.4599397431406835  9.1036314827406919  9.4686608456394907
 14.7828326629394819  2.5342830119348516 12.3891631781073119
 24.6655344495854969  1.8187470917211599 10.3647411150693625
  0.2039209707658370  1.1498778307111366  1.9934015241420835
  3.0994162559972218  8.4445072726553807  3.6674630379618440
 14.0512790247105421  4.9232841550480968 16.2735877867199434
 10.1899314020713483  6.0885373065660415 10.0930229109213805
  8.4360638556238552  4.9626107350749020 13.1972488077344607
  6.1607115930694683  9.0398723592701700 16.2694845075111303
 16.2261177395592071  6.1804243857881174 23.7853038817575708
  9.6023406994539968  5.7700678616622776  5.0611019158089077
 11.9398990003112235 11.9412491153652081 18.1477638860921218
  9.4676335502730851 11.2585397198603214 19.5541433848227122
 21.4878687153048205 10.8047490640565513 15.8350391969247912
 14.5037827149516829  7.5380450964616816  8.8478724629841139
  6.1924853740225014  1.0508405980890807 22.9558641663546972
 19.2090439233971040 10.7006102675574883 15.3135336773998745
 24.5605160596596619  6.7967073499675417 14.5208618089188164
  2.1244224985709521  2.5844667409940003 24.2650317723234323
 22.3889974399418534  8.4399865513853669  1.7079382677133839
  5.3184654588431428  6.2244833883477764  4.7846159221532822
 15.0398036302252684 11.9898065980476360  0.3589867732296636
  8.4906976709564663  1.5778778826714857 13.7871481193169725
 20.5984413603313463 11.5019715444659685  2.2714956790541745
  2.0278778635095236  3.7716260022817298  4.4364406980743825
 13.2588125361403524  7.9311474554385741 22.5905671122439990
  4.6614554848808121 10.0411671959055440 23.7941231689388495
  7.8281003552619843  8.4413354440784705 22.0496172537326913
 12.9171834853092129 12.0514187959727916 21.3914078294259546
  0.3913891619962590  1.5388228355622025  0.9907945878760864
  2.2846384333840750 11.4590749430745262 10.3451365071093377
 20.7092749866234485  5.3923500901518162  8.4559303631335165
 18.8216131850246420  4.9264003545634445 21.0215182956408349
  8.6579948354782506  7.4595999414844432 21.9924330580944343
  1.8224073931679166  2.1005284865854907  7.1645480846821084
 14.5596592522038417  2.0965258949885728 22.6214341458964334
 23.4436900813335996  9.0495984868843102 18.2035381292009433
 21.8653374802625464  7.8635153862943481 24.2061948982096276
  8.5176542091731235  3.1071467863429092 18.6320761305429414
 24.3035260351856834  9.6810366828837608 18.3670584547180020
 20.1514484454651601  5.1970114664626355 17.3434336750504698
 16.0897765732788400 10.4374335487081833 18.8913062768482156
  6.1845949879775732  9.7439814695361928  9.1931169895423182
  8.7172432377549089  5.3535484733775025  4.1783841113459248
  1.1017593909528849  8.6350418725679816  8.2975045001588317
  6.1581341694845513 12.3804932634255351  7.9005567859395205
  9.6579012855225717 10.1734528889290292 20.4454084604258668
  0.9799943775776747 10.3827519739897696  5.8248536921222014
 23.3160034978371122 11.0353940741789494 18.7364094512241017
  2.8336467234574476  0.0502405746608230 13.7866766489048853
 12.6744381443944008  9.6409464183454148 20.7729062627874796
  5.2355586691925113  9.5172765592659250 13.7342631647988522
  6.7610107742999732  3.6540418298235360  1.9620676883319710
  1.4716377954332334  4.4082139231768496  2.7028136666411595
  1.1892952379720729  6.7425322983146323 18.4806755480732186
  4.7139364665904715  1.0650969930296283  2.1703236979294211
  1.6303910997837741  0.9916070329451967  6.8788054198393622
 12.0826912401629105 11.8958367090187203 16.6551369552757293
 22.8868073191897992  4.2853068114655590 21.3031606032993466
 17.2202596521099380 10.4519865058604573  8.0744079933848276
  6.5751448187861330  4.2294846692725478 19.8976729274250914
 20.1888912334986443  7.3474807058682101  3.2164470540436203
  8.8256373111277995  3.7431440624609325 22.0445155617988284
  2.1730471528941053 11.2017493456144575 10.6025034843955677
 21.2760622362960419  5.8890027137887682  2.9372212956367161
 15.8783157662853203  8.4265419786919562 24.7820717514409097
 12.2799264673515811  6.8620683890125100 11.5668282665157829
  3.6826753307518905  9.8621419735076579  6.0402974863724301
 19.2798534614405845  5.7485632159507656  7.2039409690554903
  1.6358669156375651  9.5076255602797612 14.3255832438941972
 20.0775801297638488  9.4446204704905963 21.4724950708786473
 13.2246562574173581  8.3988592067728103 19.2533764612178224
 16.4981836879151800  4.9866213952128877 20.2915786860005838
 15.5629756117998514  8.4655537600468627 11.1240902152490282
 12.5842476904318872  1.7254665443792319 24.8324227634968331
  8.5293860912925492  1.6960181769430722  9.9549997644289405
 13.6810407571871959  6.1260030225971729 19.4656015813656147
  8.3657780119058565  1.8155230508723870  1.9918320244140142
  1.7208343263346864 11.0312613535352337  4.8191377333454497
 20.2478843369744155  3.0960257645212232 19.8100486164028062
 22.4870958819459652  7.8102439329075830  8.5395607555003661
 24.3976176946412870  0.3802969180421424  8.3006030685736807
  8.2357735178599949  9.3227573364613381  0.1651078114123586
 24.9669864075104648 10.0702755141864877  2.2411338646156405
 16.7368625950705550 10.7248176754102200  4.0213412391121226
 11.6822057574438887  8.9160826797206347  5.2031961293905953
  0.1173466677392584 11.1227223468584580  4.1889673002012850
  3.9734144830021143  3.0886079082678108 20.4662285141955245
  0.9026380842098213 10.3191406572326745 17.5940522191087041
  3.2356465599665638  3.2558666790164383 17.7025484585680779
  1.7319431536514047  4.3842917095796627 23.5815258107993415
  9.7043021045179572  0.1027353166615289  3.3449342606332775
 18.3101184635004586  6.5805080260990687 22.1967892941072513
 11.4376660606067944  3.9267403091894186 18.4487530931126109
 18.1932359436495368 11.8582524589068505  3.2981536948579144
  7.0691494769738750  5.5976297499600935  8.7264151585877006
 14.8595703834945194  9.8997176961972002 19.1106399726637832
 17.5260205601928831  4.9137775809102582 21.7196047174369937
 16.3964859635552784  0.3697947367885125  5.2802824090608782
 20.7064490861755104  6.6448956758924274 11.5232494480550525
 21.2534734612579790  3.5642316814345452  8.0837397408130300
 13.4138238445920042 10.5686780289135314  5.5432638994153880
 15.6363574744371494  0.1300364325894212 21.0446450608059052
 22.3495369648325877  1.8338839706656913 19.1757899565509469
 12.5017997517724524  8.8742140198006361 22.8300615785783449
  4.8449511662334910  2.0471254431396373 12.0746456957769794
 13.5702089236910481 12.2506902377357196 19.7016512484763062
  0.6525331412686656  8.5622526512305495 11.5606184636990630
 24.3145193901446248  2.0636950803751568 19.0464317305229756
 13.3780948996441893 10.3204891599344517 12.9226220366184705
 15.5085694466291777  1.2633447483011264 16.0703693940631922
 19.6984060200389486 10.5549893973185629 20.4136014661815040
 16.3998421125113225  3.5731924889018725  9.2923219475393761
  1.0549722942779645  2.9596749648729688 11.5142692399743343
 20.3231162486239860 10.3073953116812724 22.7860068542817658
 14.4171999136066074  4.9394739931167448 10.4788046262593948
 17.2693535416709985 10.5124874322267647 16.7525468705001046
 10.0552524952475224 11.8143438125561655  2.3529152629677741
 20.4468246993826810 12.3913612623658782 23.2174731666303593
 16.0715115564276978  6.9473644401633017  3.7082916492169216
  0.2577483888053095  3.4885853254183128 15.3071286111637619
 16.9105678293437549  7.9567538902427790  8.3252666207613739
 22.7560951364022195  5.8454787560484736 14.9229058134010550
  9.2780058315387013  5.2220053354846332  7.4873469804820365
 14.8407009615752372  1.3305305975165826 24.4555049224083803
 23.6712309176433990  8.6890164162912473 22.5978172140185798
  1.5139160102763753  9.6931923575201964  1.9679056838936664
 24.5908292008521201 11.5331893607662934  1.6271727982103696
 22.8932195216851397  8.1702504810738610  9.7996708167715330
  3.0674174791515885  2.0427860503749855 16.2102973047691847
 21.4668012556931025  8.7643522169740660  4.9354213662144826
 24.6269019668115803  2.1706781010938241 15.1736901678022420
 24.2106502522764018  4.1993950047527413  8.4636897586582638
 24.2337737694539967 11.0178716066376641  4.7361855184362200
  1.0700083575537467  4.3152327029105431  2.2320756349861974
 14.4951972130198037 10.3897796119050039 17.0518745747636409
 15.8559780525304284  8.2115644394473932 23.5270675846967237
 19.4248959978227020 12.1135177030756687  8.7840711855255389
  8.8844151277488166 10.1825260371819724  0.4302138348250714
  5.6039219049755120  5.0577284617152660 10.4845120969621988
 13.1948136436728820  7.6164546050673607 19.5050947342557350
 22.1271986361253994  8.4137386797991294 19.4119827679414207
  7.1943807914826934  7.9789812248102301  5.4748907710774297
 16.4891894983543033  4.4039494203887646  9.3558169479276128
 18.2154438193959365 10.9821362937717399  3.5293788432746096
 18.2702189163631843  8.7846636580231898 12.6842007914950159
  8.3627026567061904  0.9717756304758487 15.2660428151795848
  1.3815947232682233 10.2312569845147685 13.4722774794661806
  3.5675973880885157  5.3046508018414729 10.5320530992616224
 12.2164392900729730 10.8475741282326990  5.3567464139111092
  5.8369786040098308  1.0496987966120703  9.5753493181315008
  7.8959898361451879  3.9505880460844320 20.0665810820956629
  9.0282467818019203  6.3718308724331818  7.7229459689571271
 24.5529002624344557  5.2973553679405505 15.3033379536603285
  3.2009871691469973 11.9956759267932167 22.6506032271546331
 13.6884387879112914  5.7953542125389692  5.0365002849309244
 23.4602888340411191 11.0372168645436020  5.0076847686468087
 14.1579066469138066  0.9685073401632287  5.4057322467703992
  4.1418714700927364  6.2168989243064532 24.8404416371325247
 18.3025952863053405  5.8594884669219551 10.8453271146143457
  2.4128153232917260  1.0935692820202416  9.2378458284017846
 10.4748379487892791  0.3007026507056796  7.8189008207148412
 12.2660937543334878  3.1188645414630249 12.5126967381279428
  0.8940777163459350  0.8820893130647434  0.5501693582861541
 21.6964047153929265  0.7370258044623890 24.3853911987437826
 20.2698772867535588  0.4137792335421681  8.7751562864403976
  9.0517062037492675  3.5130832069614355 13.7789188017039184
  7.2883002377526376  9.7310479542850743 24.4459353384775717
 12.8352337925858961 10.8871759955711553 11.5339151288074984
  0.5115698676144564 11.4773824980842800  0.7352906049859200
  8.0291979983584945 10.8653792056093828  3.8566173537897956
 18.1678651450983537 11.1547468340279288  5.6600790147949382
  3.9480016585197308  2.0319373705573089  1.5427739133791876
  4.4011621640069238 10.1662452321808061  3.1672345256280314
  6.7106722303250210  5.6340875363136114  9.2184456457469821
  9.4159680695347348  2.0876723351365292  0.0178732792930087
  0.3962050775979669  4.5093695945150083  2.9495500274698947
 23.0873116865229377  1.7237576955108704 17.3911769024055332
 18.5101987298159862  0.4550260086334431 20.2442542045583274
 20.1804160118011850 11.1259551712432661 12.8571261711684652
 14.7195588283797534  8.3126142892579615 20.2167191171165186
  7.3982013773164716  8.2852742789710287  1.2096133321568432
  4.9712735600635751  1.0973619942541057 11.7260748575097296
  5.1401301660296186  7.5838502298965356 23.5416277421366544
 14.1374620907648776  4.1626797426318189 24.3168688259631729
 18.6143579630248048  0.7571422789511933  0.5805646654127933
  7.5503315928160823 11.7115402299498861 21.7132895354709063
 10.2572226595400018  9.0706194443957049 24.8020039171921098
 22.2798362478054273  3.6039084329288027 16.7780644687721789
 13.9295266540392895  6.7772372191665857 10.0518850656467880
 17.0322983255760256  5.9189789781435298 10.5593713166002985
 21.3537181012116903  8.4700635324558551 12.7155799710729980
 10.7525738239067490  9.2541292003607971 18.2989409278607660
  0.3001745558810302 10.0168803462371603  7.4159584159105822
 15.0130962091559077  0.0539936416568205 14.9422706523641349
  9.7428542840028420 11.5759756178948923 14.8444199188819237
 15.1655766485098660  6.4233657526426793 15.0164093310089815
  5.7916262679694341  7.4313428811409246 22.1596066710351067
 11.5093200870367323  6.0713514131826125  7.4064027203276765
  4.4105205472607727  1.3094189059033148 14.8071030340190539
 12.9806927582159144  8.2515936674324752 19.0695370752688191
  1.7096240430649483  4.3256458962921265  2.2611579635465322
  3.2818933265665047  4.3905698016241983  9.6133117958033978
 20.9313520677068041  9.1171009741337503 12.2321445319019944
 10.6531476767981186 11.2265019729856874 17.6373199409047707
  5.4362467864697086  8.4998700981959097 14.6334807573042269
 19.9110880121174674 10.3281098291408782 19.0837967414799152
 16.3718340528997750  5.7074635432602205  0.6795431490426619
 21.0817059600174908 10.1160350069943981 15.4007251096892759
 14.9869185476502960  5.0700151792587782 23.4902356045740817
  0.3898060766001260  0.7353647091590635 18.5493336727606746
  8.6510380886732783 11.4985781658899882 13.2064682260185808
 11.1114746942703952  0.2775933012727617  6.0212289826112002
 23.7955107464434157  3.0745577372492097 23.1837798949255536
 24.7886940137430543 11.7901444897475400 13.9168783737890802
  0.9748282730462162  4.4693925438771922  9.1609698879350763
 18.4209065248355763  0.0879814557675186  7.4086541693697940
 17.2506245981206305  3.1238103067147591  3.7596499099208271
 13.4360360393468472  9.7288566512190080  0.7874740756989802
 10.0767902727596415  5.3070571356485869 16.4185576915827376
 21.6991224310822446 11.0753495996237508 11.8014417527250206
 21.8315380494257134 11.3299983489932483 21.5645030590540259
  9.6029135210453127 10.5837741042877429 12.9827415281826362
  0.9368641655598136 10.4380152818923886 13.4456855307545915
  6.6367153924129507  9.1378001422331678  8.0139810256725088
 15.9790984778567680  5.3540586693464123 21.3281114102937792
 11.5684728075603349  3.1612383332854312 11.8653350564955442
 20.6862945205933855 12.2760038065146659 20.5919521840251747
 13.9403569111322785 10.2893027001010733 14.6209611974754186
  9.4948459693672351  2.4381035775589308  4.4136560658987873
  5.3174995609174953 10.6075601701659910 12.5275599595753295
  0.7002405825537819  9.4717354907056954  7.9167845812238680
  7.3984566295512284 10.4302864337481029  3.6481840087325237
 15.0286347675270573  5.6322689136174828 23.0872623380679940
  2.6181159087541124  1.3370392151815067 18.2361791111697329
 20.4623214297286822  5.1181347249625881 15.9806448924265077
 11.6987070123193355 10.0843780255338071  1.2829502934044925
 12.5455812493085759  1.7920285646300895 12.2481714758314979
  5.0179943000050233  6.2151000922150441 14.3744997165047099
 17.2167352946553081  5.8350486358790885 14.3248464396804778
  7.6941117098061884  7.4677533563076297 21.0613189246791030
  2.5871670816965247  3.7585710367460599 15.6068291820617517
  3.9780629118802322  4.6516799855286628 11.5710335604711592
 24.3610508387726981  5.5907236263578399  1.5839763924404868
 21.8912277472630272  0.4323741248493894  8.8238326873741268
  2.1559766969438532  5.2501727676718364  4.3074125211254755
 19.6822425558614746 12.2253181818990591 16.8453663549597188
 20.0723278080450029  2.8067349061866920 20.5871365594617721
  8.0041548740138087  0.4154837750436197 16.0716143162323206
 15.6218129166503488  2.9048450712137135 18.4622237777627163
 19.5950328580080679  4.3586222708032567 10.7290107806813957
 22.4841909122114032  8.3983307685229605  1.4904531307939688
  0.0457692542326493  9.6219279440687622  6.4859119274122232
  8.7217640172325837  5.8439188140183314 12.4870144121754052
 19.2512254320323599  2.6729180839252278 22.4684730626030245
  2.6267631690142506 11.5042908112538456  5.2313294868130837
 22.9546848675025075 12.1942840573351301 23.6643032630273602
  0.9449417008761977  3.3175833131268542 17.2454874460797249
 19.9075062619091483  5.2288719535474071 13.3018465425362109
 14.1348404060745807  7.1313524477329819 13.2811780964402377
 16.7602668710799279  7.4026511201647356  7.7147532173966775
 11.8573247859521427  5.5288387488242421 21.3857029780678936
  4.5099523870786431 11.8848848153766653 23.5181840711823611
 20.1196843619084369  0.7675352975574953 24.9314920976438970
 23.5876851010078958  6.6117463198545137 22.2407955896299292
  1.0514749102534142 11.0694083145677151 12.0910858791745657
 14.8803712869437277  9.7001098316163343  9.4918799514378787
  5.0263438164379188  1.3802614360490169 21.1079113516527741
 10.6660872281836756  7.4640220415145260 20.6369034692816911
 19.4366082173942623 10.5371548726862088 20.9238904742169609
 17.8272001644723126 10.8765821430723086  5.4321572326273460
 23.2666087678012481  8.4467802177866833  5.0702406815580279
 15.5351349457796353 12.0065168591712226 12.0577041814372432
  3.8341774157407591  8.0099131774669114 20.2215473727423465
 13.5466936805968601  2.1403448957206423 20.5533247536762289
 14.7291350363423756  1.2862779031443772 11.9454362950964992
 16.9478116868752124  8.4355106558350439  1.2551852391358396
 20.8983141560565286  6.4830104210334873 19.9122926196606329
 15.9020586362583849  7.9497497973263958 22.8896873294793473
  6.9749465593951507  1.4634118771475795 16.1268384387375967
 18.7736398627858776  1.7825869211380310 19.8767671337708691
 18.8252172869747589 10.2134710923831307 15.6172993665641631
  4.9504538438983507  1.1388771997945741  7.2181938948194464
 16.1847902304422071  8.8847015210821763  0.3569296562843629
 23.9167331712864026  9.2672049052860608  7.8256862856567313
  1.3094030326741761  3.5683850774394279 22.6959930489286741
  1.5551733442373450  6.3991982985284173  2.6516067342141674
 15.5543819375123746 11.2486118852387236 10.8399104144610039
 11.3743358461066784  9.2312827574700496  0.3386095982690386
 16.0115181077325346  2.7924183303454972 14.3497562335570148
  1.3530173927326767  7.5816598290492125 24.9134936602383377
 21.0879476257078124  0.0678726355861279  6.4707725921043995
  4.2749554986483211 12.0885328911657144 18.9446036442856318
  1.9534495086192385  3.3129456817698411 11.3561470114421788
 12.7628213086923683  2.3688675963174868  2.1153826159962370
  3.2356270487586167  3.0919042430314723  6.2692252599025267
 16.8689431817591853  8.1640279133170974  0.6342782409089981
 10.3143949575323592  2.0180256231771900  8.9132974780692233
  5.7907139094503197 12.2643380657603682  3.4597424689958536
 22.8916764133105417  7.7027392551315659 19.8773219924780165
  3.1507275780433450  2.1392020872510980  7.1389608584060156
  9.5151472298964617 10.5397464349119669  8.0366631308741230
 22.1972406013855910  9.5113937438053053 15.9893042715216538
  7.2368914644405677  2.7174214263062093 18.4038238569180592
 13.0675632218213575  0.7675345757824995 24.9072303529396812
 15.8205418571925431 10.4234969175530114  0.4253866269371410
 24.4730389325288300  9.1826695060276755 16.2527756142675770
 10.3997489951549795  6.7906807848674617 11.9439025348722492
 16.1699035978735921  8.7848847307194422 20.1153384033196332
  3.4925445930531920 12.0984877225004546  3.5663041302777381
 13.8735175779431668 11.1049662454076881  7.3353731340427757
 10.6162638569326440  1.2733217334716216  1.4367489150896431
 22.4390159116308290  3.7702133896621937  6.9528801049817721
  7.0559244286529363  6.9609361849543347  9.9089210549876654
 14.2361711776983793  8.6644917883279238 23.2269728548019039
  0.7327706556454163  7.8382047162569153 23.4133322599406029
  7.8752928217292268  5.0232274015542249  0.7658758437102082
 22.0753052374698733  9.8275630780624059 18.7053059896944589
  5.0777687947627941  8.5300667891418858  4.6650502153975193
  5.4989701861045184 10.5959589293207781 22.5634501886383880
 23.9073204453602983  5.1673625852760683 20.7259414697652424
 15.8982823444056702  1.2156812130546575 13.9082956192587961
  6.7244728825634690  9.1078686221073699  1.8958635171390434
 13.7781325559029977  9.5369335308377323 24.4837055795284471
 22.6396751346251328  2.5099938223184992 20.9323434140218154
  9.8957594646586848  9.0146612592575419 18.8235686830354716
 17.7188557771588009  0.4045233539792352 22.6480206580124879
 20.2831992159053662 12.3646108607596776 24.0294735757771285
 13.3623880862083233  3.3282824516428091  1.8863295213721365
  3.5402657014970975  0.6228225308576704 10.5565522497317534
 23.9736612415749875  0.1622435753989236  3.6555434594189489
 13.7189224542672381 11.9648444347385521 11.2808293017003827
 21.8980736783231009  7.9621557881879408 14.9046641494634873
  2.6903600328091346  8.4405357115625108 20.1674084622261169
  3.6340246343212321  1.0260145184705103 13.4520238677281991
 13.1651449078531684  8.2952331440966720 10.9669056655684987
 20.7835212097426520  4.3204860723672835  3.8188365538692275
  8.1859608801016410  3.2222559341333135 12.9109699572021928
 19.6720706972629173  1.7461044489155080 18.5549458458809866
  2.9748317217337119 11.4983735892448458  6.3298288762242665
 10.4339227012516567  6.4694199683002287 13.0828144438950407
  7.8623585439577512  8.8300241489568840 12.4317430366909800
 15.3052176652966132  4.8966503201036948 21.0038599655981457
 11.8744418080311469 11.8717337897381441  6.4596082579622083
 16.6359915708359267  0.5551655197307307 11.3337802287814124
 11.8443051291835975  8.6181530943690579 15.5981141215181509
  7.5040403555631823 10.2031279752045538 17.9437585258594510
  5.7495441198114046  3.7940108351381547  6.8802123339288919
 10.7286963428969937  8.5997175348921289 20.9052178640408535
  3.9966409346073122 10.7720939725507492 18.1667933208713279
  4.2953438844044429  8.4223325927380159  8.2877722956648903
 17.5889732398041403  8.9366206940899691 20.5680111402496770
 11.5632341762833466  9.1384003970950847  3.1909479541661909
  5.2622656711667153  8.9495676494899996  5.7669699568147630
  0.4640641857236923 12.2633847290479512 21.4142822178147156
  9.8412348119734006  0.8167424184813827  3.9796548331992954
 11.0587815805612042  7.4710122460830082  5.6056398342389802
 13.9886940545349816  3.9904872847211026 11.2395886151304421
  3.7658544973311265  8.8582683221242711 11.8313798852411001
  0.0017312471762911  2.0485356459620108  9.4772033670345337
  8.3569897494078553  2.9633591489230091 10.3544318980325158
  1.9369102324996657  1.8251388109406173  0.2159909579046028
  5.1600295026600493 12.3079256037287070 18.6112437367491630
 24.1734835431787580  4.3689551026881466  8.0568217593509814
 11.0033094119295995  3.8106431503829743 15.9588569733122636