Na Cl 
 1.0000000000000000
    25.0000000000000000    0.0000000000000000    0.0000000000000000
     0.0000000000000000   25.0000000000000000    0.0000000000000000
     0.0000000000000000    0.0000000000000000   25.0000000000000000
 6000 6000
Cartesian
 10.7897985427592875 13.2882163106874653 10.0515337242053509
  5.5636513596697013 16.5768039373572940  6.3437751640303883
  9.9145909293622676 19.0594995832347749  8.0094954269051062
  7.7948199970623575 15.0793812540729437 14.1607372039746195
 12.2550936007197446 17.7162945935112859  7.7632331441916680
  0.8297272146817889 15.4505943136525321  3.1386295580950705
  0.4734914519234986 15.9416649564829029  6.5629236081442439
  1.5285410401544259  5.3785237508725947 21.8486809157061757
  5.3900751368562112  6.9856502846747865  7.8243345291467081
  1.7952156843595282 19.3800140611734300 19.8963261418493147
 11.2767330306939471  6.1040937463306326 16.5035945789439573
  0.4570441555497442 13.0822446491020923 23.2858174588930886
  7.3670158080603070  9.8693721391583669 24.5375428346626201
  1.2412110873224267 22.0694892560455429 21.9059263574452743
 11.4521447913498360  2.3950164333893995  3.0411959756357576
  6.6903812550894823 15.4755085778774273 21.8726683859120463
  6.9687810118630438 23.6049327643611164  3.1049706172686866
  5.1205822174067528 23.2506559105825872 23.7738891615410743
  8.8775690104242280 10.6047163999661400  8.4685342309384311
  2.8274096910969400 15.5493565325389405 13.0352423819877412
  4.1593570339769856 12.6273401023947347  2.7051009483193518
  7.3158192016723662 13.9466450148944965  1.2627653317818257
 11.6484656285720245  1.5236388200538413  7.7976486449118934
  2.5403875170929298 17.5859995617466041 17.8946342751824439
  2.5591314956821183 22.6460958587220382 12.9330975413010911
  8.2851883237181170 23.3203134608083928 19.5083358066660999
  0.7999513185582828 14.5636220181191440 20.7952585284576088
  2.9550438935193437  5.8454367592211049 19.2556122291160818
  2.0373673769819396  9.0670098709254567 14.2349006441584329
 10.4875631853880193  3.9489136328682832 19.3914276172367046
  5.8619814486531450 19.6444150268307034 13.6833559436180412
  0.5816721942190417  2.3291364788679112 20.7968003329806024
  3.4115982024984426  2.4619787826491422  3.4773999841312881
  9.8307666472768265  1.3900815632148094 13.1008329513020971
  5.3497062671695401  0.0264646369155797 19.7911526401486029
  2.4512114887829921 20.0229839515047985  1.2912729411810975
  1.2121612153538321 20.5870929037160657  7.2704327559426574
  9.5816645641260152  3.0726585318672743 17.1719450932796782
  4.4405913757814979 16.0385055192925527  9.1622627499337597
  7.5750190683524217  1.6909635982899758 20.0251964596217462
  6.7384484313607445  6.2055717600535472 22.0445712199642188
  1.5542469693134757 19.4576265031740192 24.3286388457420450
  8.2165401932860433 15.7820571171036264 24.0339671606356120
  6.9430344013697631  8.1583676432065513 17.6849793725111404
  3.2241568973866088  1.8099487534770504 19.8086996887851043
 12.4078347056209264  1.9557947418446626 21.0422261832478590
  3.3477309233731267  5.6272582642860982  2.3296478564523380
  2.1957616972251617  8.3336905265849506 14.3366803132634058
  3.2930125090261044 16.3224784034874659  6.8945274138332016
  0.6611221473017345 22.9598594005032730 11.3569442584910174
  0.5810762292617355  7.2963704039791466  5.0973796775086688
 10.8301199440984615 18.6518009256812753  5.8181579251858215
  5.3901242990466409  8.6381881538025045  7.0283009586987548
 12.3271064249924880 13.3553696974904135 13.6985057213802381
  2.8928296188324829 14.5748074350761279  8.7885613244904963
  4.6750903558801351 23.4872225548546858 24.7494794427181972
  7.2504968823634535 18.2022037651400090 24.4386807081469719
  7.9533309130712091 18.2653119756212980 10.0983742671545471
 11.6881540332400036 10.6096733294472436 16.7796480198296010
  7.7721346380524974  2.5337234966148268  9.2908076053908140
  0.3017119016971960 16.7438636495470377 14.1163579370437002
  1.8139239467279633 23.2395453137529771 12.0380882462663976
 12.0745774996814212 24.8480742912963386 21.5846138175505260
 11.3022157858601844 12.6814259042411219 11.7251725805574907
  7.4877807148675339 19.2609495573029612 18.7792095908798338
 11.0877969586699248  5.2069687308776054 13.5234598599017879
  6.8949326846724990 16.2672625813946432  3.8822054997469326
 11.6139171233465515 15.2101841709623962 12.5653613650078704
  5.5142308436400400  5.3555781163068392 11.2014007690369155
  5.9713626017195001 21.3824941992678177  0.5800070942286435
 11.5896163504056702 23.3640025362204753  3.7906262575605072
  4.5277554097248967 20.9703424926709125 23.5462743200111539
  8.6162482137401817  1.5674566624534580 19.2441258552689689
  5.5116247527821107 17.7544400178615192 23.8733801985501231
  7.4504985159498158 16.0571151371379912 21.9341098782299611
 10.7923617054672736 24.4463675769261854 20.0998653984162345
  9.2188755908137541  8.2841096135248016  6.0302745113290266
  0.4118559534716680 19.1260199966495961  1.0180836897427608
  5.4662867532886041 18.7629250431260672 23.4811998198186984
 11.7626858464268427 15.9220417919205683  1.7563968090137452
  9.8805845470077287  0.9689631177899257 10.3631206952795019
 11.4847627812925559 23.8161303679533916  2.7030941926422969
  2.9520478695407735  5.1370867435527439 14.0168988909651038
  3.5098302252636429  4.4331920121019674  8.6581473977575758
  8.7416570557941018 17.0602734629345463  7.0160915409289730
  9.7252641966218434  5.0307052466230022  1.0630799928042480
  8.5927195304970816 10.6742981288928060  2.9286523013974786
 10.9296147937093000 13.0716757444067273 20.6542362438767384
  5.3742754181727186  0.8939064577659157 23.8858356717442319
 12.1200675026607083  3.9490344370477990 21.4217834623631944
  5.4573259691043408 17.5551254733256634 23.9938301844493651
  7.1519550202190665  5.8160496437065534  0.3463617760438294
 10.6511849843203965  3.9320629457626786 11.1819294333373804
  4.8439930506721112  0.9824052923277045 11.2857481517296971
  2.2845930605123721 19.3111360628675364 12.2638086146972185
  8.9156936080733740 17.1249417784274272 18.8964700297901729
  8.9858953417213137  1.8860166202699844 23.2813368776260567
  7.2144511305794357  6.5603032971547472  9.0175152798264833
  3.6896540218450382 24.0302902991093177  2.0890571303149019
  5.3915946012789355  8.0609273901492937  5.0066462392018387
 10.8516711326556621 18.0734530873938688 10.5260398287913013
  5.5757012477031447 21.6217402935129321 21.5891130718351860
 11.6116991669925405 15.6557992872110550  2.0186201562260373
  0.9744828455031304  6.2663687422249312 18.8594505744331755
 10.3929022491876513 22.0162041937076509  1.3438836444839293
  5.8262064207001618 17.1026254152425672 18.8253539818457121
 11.3621864404353250  3.5350087930145713 12.8927841959021912
  7.0119902640636971  1.0407362370941491 16.6539368413639899
  1.3582464022833138  6.0945663513124764  6.3766665087904153
 11.3170066202604236  9.8605334339013950  0.9854235807365848
  6.0070607198900827 21.3390383852361900 20.2181406646120081
  3.1450750670140026 18.5533026086880390  0.3569442198411302
 12.0807514349374703  7.3787339880963474 14.3821379353209107
 10.2961394692753156 19.4321202204712300 20.6445454599543226
 11.4377727261454680 19.2924166537320296 22.6466992742599444
 11.5373512434481427 16.5246972658320779  5.5869468397400102
 12.4077677551693135 24.7053222612968284 22.3512456157949053
  3.6925323324708881 20.7818236764435760  5.1105299871929599
  8.8387473760353146  5.6542980510994312  6.7873448281489983
 12.4522633501106235 20.3802506185044763  5.8721452047453004
  9.0722280771342234  3.8745847897951422 20.1465620869521800
  1.6344977026500265 17.0057768779833687 16.0919882664885314
  4.0233974363763805 17.4814263556531770 10.3327594629175774
  6.3441466278602112  2.1447488931681722 21.7946474774715711
  1.3200769323483468 23.0660039573283875 20.3285108182246361
  5.6406609507466943  5.1771983994064845 13.1734988247852289
  3.4973740826814312 10.7324152536375514  4.7031678863350157
 10.5713328163006040 19.7812871284695753 14.0927681881435056
  3.5774690639588371  3.0451159123541394  4.2631389360237577
  0.2880488756522764  7.4749061756184814  5.7480936198253616
  4.1047342024299933  1.5354804818218017  6.8204579790218069
  3.2186267097567334 15.9182217628314255 12.5531679077787182
  3.0465130184528015  5.4886022724623809 21.9383932752247865
  9.2878883514962567  3.0790471951845322 24.5462094664323196
 11.5712511639908193  6.0366263874045689  7.5796931086013526
  8.4510381314675502 23.1957511502298281  0.9895819127511150
  3.4516038039939496 22.2102674526210286 12.9650762015791035
  2.0178599699949196  3.3450314092193878 19.9428947502481257
  2.6160337101277120 10.3571322329142745 22.3214385902143277
  3.2091928660912408 23.8090007909615515  7.8762936908175680
  0.9340307854274431 21.5108213580729526  7.3745651321367189
  9.6580879109250795 21.9670378356087177  0.0049030757532004
  3.7029970920192992 22.5442511367351983  1.2288551084831614
  1.6839041382465065  2.7537030180700603  6.4866247035035043
 10.3506958917019407  3.2917036690244936 23.6635652946604225
  6.7709536788849878 23.8369620399721747  2.8210058122971122
  6.3223436387825487 19.2590740366182622 12.2573334431542715
  4.5015895469121592 16.4310299053001359  6.3196183793803762
  6.9130511229918579  0.3004482483027727 24.6337092247017253
  9.3754697809347274 22.0412163399351826 21.7230252906321653
 11.9430298274117668  3.0046186191051354 23.6251313000103131
  8.7908796366727362 21.6281071173158033  3.5963207267207657
  9.1812269979534804 17.7643092082647200 14.7448633051220632
  8.4587845932500372  8.5853175067274456 18.4313355681632345
  0.2284470597414519  4.0194661491641153  5.1675690012832964
  0.6661022841772540 15.3621803342188610 17.1648772164084384
  7.5456880883060808 15.7594003205929898 18.2411882063565720
  2.3250921174535026  5.6464360820345751 24.6512307550996681
  6.6176504800644009 20.7032368847649728  9.3023222448780771
  9.5649848329205920 17.4001737928018798 19.7209356211688984
 12.3824924928520304  0.1026547281549567  0.3180161003572941
  9.9482993525212162  2.1344356481611895 23.4599386451113681
  8.0944041933838289 10.3025564040534920  5.0654829270511321
  5.2857774741881425  1.1240173602122894 16.3597730879484544
  4.3531445748420179  1.6017387395732749 20.4229960080343282
 12.1469535164753690  7.6955028030534747 13.3156109197603598
 10.2363642061764217 10.1464264142077543  5.9887435897201042
  1.4067562128914315 11.7033401325826247 23.0376083161857004
  9.0414850665449560 20.4790268421541093 16.0041360841151956
  3.2575828620500782  0.3903249513312825 10.1914570248646008
  6.4091084496626207 10.7714269593224987 10.3729053332344190
  6.2099678354384231 16.8588204271433995 21.1949189990735221
 11.5018087143552528 21.7981243374748708 11.0757399401980177
 12.4805874540380142 22.4666800338154076 22.4913283355959379
  5.8776681804459860 21.9382175113718105 15.6217136260223182
  2.0704562785432001 21.3173469511407170  5.6502078220482019
  6.5214325820661303 11.4348135708993368  9.9116861051468579
  5.3541846016208563  0.5611988834856073  7.0696347426016048
  9.6755594525838085  9.2554391521287336  6.1658298276205681
  2.0509564094482720 15.8487471942085545 19.8940930631449895
  5.0110561389061887 16.6410531926159990 11.1810082971029949
  9.6032247050214679  2.7952345916047854  4.5077811016271738
  6.1384875239517944 14.1196301156280715  8.6233533609767221
  3.8499689678894207 12.8568866350021622 10.6936744813312199
  1.7935038669004588 11.8389819920244541  2.7703399550031591
  5.5518118690474942 18.6041661624816079  5.2206928284003835
  9.5921834626198681  6.6549125042068367 24.1144582043003552
  8.3495198380432658 10.7598359863086781 15.5634218899362828
 12.2158520795478722 23.6518019221964302 15.8349063554009906
  6.1355576122345203 15.6335776511736100  3.5395832748802301
  7.3880504560135538 16.9280284396037608  9.3739844203805482
 11.7780766679337603  8.2691159254261830  4.0313586378616089
  2.5223132700297581 10.0382587802774559 13.0153201231804303
 11.7426551467472002 17.6101027604239526 22.9970944453948611
  6.0831718757204580  4.7394304674768035  5.6078668826296312
  0.7093481781004687 19.0296586691539993  6.4732524712911115
 10.4771424948597058  3.6678222141544441 20.0879532937370016
  9.1155039188989928  8.5487298707238999  3.5029372565927619
 11.9332357772780746 23.7874174252093837 20.1246654941349590
  5.1264799631324038 21.4974807326204527  8.1586731519357638
 11.4098322921944000  5.1026698225655922 10.5717078599015757
  1.8470006828880872 10.0809546001632491  5.6039649437200110
  5.4194045511164726 17.8645812291021358  0.0167175196189049
  2.9856761174675435 10.5170125539959471  9.4299950098758529
  7.4630654917392247 13.4834393223204838 16.1646902403629795
  2.4744348903067572  0.6544027713380767 23.5473778790549275
  5.3900066380808163  4.6831324485517722  9.4070628096382425
  2.2523207949718094  9.5112021823931503  4.7750794816646165
  2.3804241686036920 15.5780034445123761 19.5038919195085256
  0.9557455898987808  1.4322588576154127 21.9746199422397730
  1.2186846119438692 14.8645458812194633  3.4226256555051662
 12.0346960376644017  9.2726100512187042 19.7571308327639166
  4.0489531315625422  1.5105643433102240 13.0549180149356463
  7.0035385116951261 16.9435321199444751 19.9443399067708960
  2.2604065492099181  6.3057451421887363  5.6586047660832310
  2.0851517804363517 15.2919475875291724 11.7631036028094140
  1.2411262089112429 19.2163863425219361 19.8052587661916668
  8.4920416916683514  1.4894237399517669  7.7447973693463945
  8.4046933024212223 15.3606675869602078 16.7401340402383951
  0.7164071433788199  6.3097175356511572 22.4226216890023196
  3.5013635309885083 19.8337306477286539 20.5109963754708851
  1.6580412695920286  8.3992360664528025 15.9605688722620567
 12.1405180541987150 16.3738738356036464 20.6975549905083867
  6.9033627372250717 24.6350490835658498 16.2699474912462492
 12.0037426878715596 18.8067101146125744  9.3768962935436964
 11.2480027944538747 15.3659327725721226  5.2321086196378381
  5.5247851265709782 10.1272445568476073  8.5992669377472559
  1.4397113590686170 19.4576237324893597 24.2820719486484649
  4.3916204673664740 19.9303900566559236 20.0656822161123536
  9.4605031001663313  5.3512089910689786 12.7695128963186946
  8.6016242141377290  9.9963340256346083  8.3859688408607465
  8.9891541732890321 11.4283809375150032  1.7984168146729547
  0.4957021041753246 12.5305297493611132  0.6134975122350722
  5.5263440674293527 12.5294825702577270  8.0135583216387580
  4.4373558913065843  7.2809303795364366 20.5968888688818055
 10.9556096482349616 11.8627157699608787  1.6639457324817524
  7.9679629104062748 10.1052703965014175 14.2795539993231912
 10.7320333124287579 21.5677639802767729 14.4092165117194941
  0.3509562347787228 22.0428758519901322 24.6144443981416750
  9.9834997835492256 10.3617242236443445 24.4990267904936481
  2.5716339133547779 17.9023635074972916 10.0234705070142969
  7.2344056946385678  2.3130195808191876 24.9200948280841565
  3.5168878051996635 16.6666839815055425 16.9576771636296435
  3.8400445616990533  4.2578969519854972 12.4740720202559938
  0.8642222212460927 24.9657449661594555 24.2756462419757852
  0.3931944434965004 16.8380236913627144 21.6641807331071128
  4.9427906656371388 21.9654347267772216 23.0614529447916219
  9.4198215563873866 12.8817964055956331  4.3521888457947355
 11.1189656360628852  2.9108906178320249 23.3386139028419812
  1.0419325325833320 23.5201502561197380  3.1653546044441665
  0.0574184465489436  5.0636622961907003  4.9722120771055165
  8.9841899562087804 19.5611880019126403 14.8867481457473474
  0.7880427878294339 14.2702700985922810 15.4295470404576243
 12.1985544856630987 17.2104810793932899  6.5555013630331960
  1.6557042494675631  4.8426416026626908 15.2774159518431016
  8.7649513135035306  0.0734521076425221  9.5095731478694692
  1.1979481210922582 17.8281423951630202 12.5892355048978857
  6.1405654093905193  8.9656712529089635 11.0367476409472278
  9.8088007000315933 13.0267308619929167 15.2655975149318550
  9.4487167298554979  9.1641573627312471 21.9927954240668555
  3.9563461458107207 13.6193452815615323  0.3361472046636730
 12.3130343911764371 15.3380250047603752 11.1862550076033234
  3.6939563945373317 18.6502459778684404  4.6841500348803358
  0.7548181168990294 22.4561814439744616 21.0415288787528532
  9.9879325996096870  9.3664032799966641 21.1399269039462894
 11.8757373126576358 16.0340276737855874  8.9031133143711436
  4.8127373179014477  0.3522039392740484 19.4916073789315334
 10.2226088511397162 22.7739222104539714 11.3105910999284092
 11.0523082483803421 12.2894610568366307 23.9719822532366855
 11.0528650745064319  6.0066144592159496  3.1692160424633027
  7.5070128403636698 15.7296159843586469 17.6558491157627913
  8.4280443126000666  0.2815237386531773  6.5694755439504400
  6.5877335875237986 15.0768110249549192 20.9628964173434724
 11.7000431458931615 10.2503060527380114  1.8938283677649814
  2.2866885130231678 14.7476767607720944 14.2033182965606990
  7.5853051478440428 22.4472396296668997 20.7564558115585029
  1.8764124318847490 23.7274853739549805 12.8466800613546184
  7.0758955935369698 24.1544811516788229 14.3647162659860737
  1.3931412139875541  4.0487669776420887 22.6265932305839783
  5.0762132124864561  6.8309245197246433  7.3484030120765809
  2.3047119855437019 20.5886820659920033  8.9794831275844409
  9.0864626558434516  7.3557135217616860  2.4771602486619542
  4.3161496307310410  8.0536873932246529  8.3240179267358112
  0.8846473243947361 11.5351622046600841 21.4711737220507004
  8.0083732530513654 18.4585280685958111  7.4812488898081941
  6.1750455031520897 17.9795429543496788  7.1784337550301265
 11.4680603956654963 12.3821398999458836  6.6252983904561482
  0.6950241982448028 12.5433998007995076 16.9204520373234786
  3.5186956478369869  2.4355063924731248  8.5559382958132488
 12.3274688666348666  0.5384830644067764  0.2848634846903679
  6.3502935955069466  8.7689193704952118  4.2278599130119474
  3.8207789959017089  6.6651682400448093 21.4826104331214971
  4.1167747364923244  6.2659924529800151 12.5351572351228242
  1.6938253546570545 11.2454714422325939  2.6385296032012109
 10.3835205013786993  6.6581333436342582  3.2471064609694791
 12.0591447570170960  6.0918623726311436 10.9308968116207499
  7.7913564549718775 23.6558774247094412  9.3318770915883942
  7.9291391630792711  5.0838277466054205 18.8929371973001103
  4.2977375114791734 14.1487108609400281 22.3834398190413779
 11.7365193142260047 11.3602283929289456  6.3585999567800204
  9.4947368008991404  6.0828254237225394  9.0468965047257477
  0.5947774628152965 17.8496350733794458 23.8166782883073580
  5.9559957908727208  4.8425143956404710 13.1394475293995097
  4.8473133087844182 12.5895614794406860 17.7597849596104496
  6.8529080864288412  3.6524172190820883 11.1762011126504284
  6.7060501578757776 17.1700068363780183  1.3048990053613201
  3.2187915538525167 21.4592911985047579 16.3071732694782199
 12.3305700602152246  4.7820040745576868 21.1424810910329626
  8.3398484954796022 10.6673270513617098 10.7657522362497406
  7.4989173247008196 18.6069524933616428  2.0505559290994686
  6.8467501873833827 21.6607987050250159  3.0438353554549793
  3.8704095659174071 24.9471487477175664 11.7290028891195561
  2.1757787161859587 11.6257658748076143 19.2470578915658663
  5.1509917737687898 20.4374834641057461 17.7845812252650894
  2.7283265151681038  9.9674808606353977 23.4508246991088747
  6.5053589614133154 21.1361289472021774  9.9192156269770173
  6.1285213013778073  4.1150245136185664 11.2170003872443935
 12.0627542082512544  2.4199561576451902 22.2031415427118262
  9.0999541788361746 10.8597673991973362 20.1106783096262625
  0.0851749442914384 13.0705774124109073  2.1945703901325215
  4.5722734786440959 17.4007111426446173  3.7521744280830842
  6.3978063961946443  5.8642016867474656  9.6377491646622069
  3.3251052388572622 20.0874989480187658 10.5948193513764153
  8.5644192917106761  9.3900715626729987 18.9327538450866726
  1.3969371858504309  6.6465651763819924  8.8209194521517116
  1.5966161569099018 18.6554983694364758 17.9610951188770578
 11.0628314833449348 16.0174811566329929  5.8057995307286268
  1.5363564780151269 18.0866520004750484  7.3601719841175584
  1.2052685319004899 13.8964313030691962  7.3209106839824987
  8.7729328469247250 18.3647165276877189  5.7906808474989049
 11.9865019570507592 14.2767843041926543 24.9138005659514121
  0.6230559726818725 18.4034657284633560  7.0484982836286072
  7.0553264729936265  7.7440632077604823  4.4703328304320262
  3.9419405355313519  4.3891613508524188 18.6348237766115119
 10.2416067548289931 11.3694568217589786 11.4608033031508327
 10.8605580280351255 16.7975543727155561 16.4963422303536653
  2.0119327770135982  4.1083665350956684 24.3163553529029492
  4.9922081199438351  8.0837437920662314 13.4819132571490083
  7.7580564516866843  4.3095669962044649  5.8925052084459484
  5.1675191755255305  0.9895661151919356  6.6376980308618858
  4.8954023478531292  4.0545207350768715 19.3299944369727719
  2.1082511006892899 16.7524985697830573  9.2434623438136008
  2.4358062375969283  2.1908705831462849 21.9618909396053716
  6.7505109737396758 11.6758712854589657 11.3686947088542833
 11.8259858569716965 18.6885962466190563 24.2371169264601143
  1.6120915075820368 13.8439358625765596  0.0300423242291633
  2.4606716597735288 13.0171716273842240  4.6035414466650879
 10.8605470500702719 16.4285410621336396 14.4896312800653426
  1.1164620291052676  3.7546463444617797  4.3411113691242003
  5.5293904352138705 14.9300892790453918  5.0105129159104607
  5.8452888535546554  8.5395233861820419 23.7695515615723814
  9.9265476734966729 20.9734969171571990  1.5626866610547001
  7.0373561731713625  3.6904049821618967 24.6365351949988565
  8.1235111728885734 13.7045654764885860  7.6319633436538110
 10.2039583947993613 20.8574827857583216  1.7131802401101126
  9.2101477653301078 14.9069838062426943 16.6768315209433595
  6.2536862475116211 11.4095238556198417  9.8674414026865005
  8.5438274760003328 17.2167782751921479 12.3924711544031609
  2.6313460269623183  0.0653503113730579 23.3426832469844641
 10.2386660339490820 12.5200651644356835 24.7352186705615473
 12.4100980639504730  3.0363216311839976  6.4576553094469276
  4.4063929372496871 16.4921927109790012  9.2828934240540928
  8.7948890385659819  6.4001423569396794 17.1925930852035940
  2.9559915084186903 12.6985639858518571 24.7649102121428157
 11.9229677421613438  3.6376850114379473 13.5719872375819790
  2.1947510201459521 24.3607911860387745  6.8174637536599594
  3.0566538814719086 21.3635717967355490  7.5511877343762608
  6.4061258309083646 10.5136801537655664  3.4223443378798404
  9.6706433732391535 19.0063480609126145 14.6918597583155428
  0.5434790046622413 18.5032627165798367  9.3364775573538985
  9.0891532234797037 22.7964540467581038 15.0031638634405855
  4.0875264229660511 23.1131815808420917 13.2428292130319534
 11.1152917140234688  4.4156751848830256 14.2528323290184282
 11.1764769063687304 11.0947306785242308 19.1385139567491187
  5.5020355412280360 20.4226828391769359 19.0304780467555261
 10.1222659100882080 24.8463017050392487 16.7927565946209967
  5.4300428975513402  0.4619582907585233 14.1329927785010057
  4.1048141331899979  4.2222730485826139 13.7431275279927654
  2.8721814872101796 20.5085110829717046 11.5457715054721444
 12.3908462351611099  5.9053487055494207  1.1956941691207206
 10.5159502059761198  8.1502236813075015  5.8094117351851482
  6.8915166283918152  1.4399467624909930  1.1852371861158113
 10.1406935242194187 19.2721231115386473  6.5731356300288510
 12.3452669474507069 23.8031716080397260  9.9052163236333133
  0.9853756525485664 22.4171847675075711 15.6243874997014114
 12.0403537408170997 24.4506438260202508 16.9707839223420187
  1.4826914011420176 14.1887579877808498 20.4555006327366016
 10.2995672020127849  9.6519284577350728 19.9615891533724898
  9.7144503657307713 16.5345936741375326 21.9158812295253789
  7.6079123165029632  7.3646069305784101  1.9486822313390124
  0.7511310573905385 23.5193631255623714 14.9360513267740860
  2.6073245460201635 17.6072899217751306  0.7217152746029735
  2.4343101260877726  1.9005783143921655 18.0197299891243361
  3.8009636063598853 15.5906641812020261  7.2928934624851189
 10.8302119936934726 21.7459560123951903  9.2827003259596879
  7.1721892022398244 10.9678440894781826 11.5556118598001127
  7.5842638302521150 12.4443900945803101  2.8643196112775802
  7.8098533711442037 20.4112176412768740  1.3348969404282500
  5.3064388887986720 20.6368080785669434 17.8333764746009251
  0.2792043088838478 10.1736388216603739 13.3476756458858361
  4.6922902016398922  1.6428379233194692 11.1769772303183448
  0.7281549802181101  1.2015050515539503 18.6954014672410693
  6.8062299603159682  9.6138860609447061  5.5830262976619540
  4.4614924022282905 18.6056085017535864  4.4620889725452706
  9.6646807841792146 18.5798794001247174 22.0330778961223928
  4.9701000645151829 14.9435686133539161  6.5576846392628205
  7.5028660451075364  1.3392402447477172  8.6107934748804169
 10.8029661575811762  5.9044209336416893 10.6026317158726187
 11.7156243355551837  8.9964153519814900  2.7528207529116515
  8.3291970930663854  2.6310863334830321 20.6680068493206086
  8.5955582657342582  6.0955443913561966 22.8145855235935109
  9.8694475180792836  1.6088727170642803 15.3237556993606301
 10.6810195770491934  6.7920629315972620  4.2016913551845079
  8.9133032930145522 11.7768913911547930  9.2136111386183703
  1.5812033794732778  0.5703976147670288 11.6727113894525498
  4.1301612645062438  6.2407451128776863 13.2031121352701977
  2.3528287431005523 12.9853705819628082 20.1233710488878970
  6.7486093294567482 22.7540003591002886  1.4840353985708372
  8.5914718900301832 18.7361114745662150 22.8255530343509996
  2.0349241686216204  1.9410040471428094 22.4550203291955484
  0.7633363948032895  8.7895749177735176  1.3856430195205114
  6.7511145406175004  6.9641683166679780 21.7768982387040246
  2.1643489492891117  2.4255814042061479 16.7466604927306335
  5.5614506618871591 17.6025486749608788 21.0355800674462614
  9.9970967846443397 17.4113190348312834  7.0390184093448420
  2.3912029293790473  2.8952681472968629 10.7717516183721607
  7.9147249904529771 20.5658290863809334 24.8894548043093913
  8.5334480139582638 18.3215411930910967  5.1428322820658012
  5.2910823399625171  4.4417755000487791  2.9208293198239197
  7.6891891403073398 14.4037622909079115  9.0328232892941802
  7.3305115836348911  7.8163723032066468 19.7692999941153928
  6.3125005486945165 13.3934438174559940  3.6102399828891456
  1.1516962089350895 13.1163671440986764 21.7825908664532903
  0.0023462402179587  3.8665186864633667  9.5795633898021482
  1.8609462023530838  3.8456458965528970  8.7705833645400499
  3.5973039123217130 19.7737087820534185 11.7234999717788302
  5.9320128434021084 23.6797181184774814 10.0224172510311078
 10.8833690399226590  8.5669079602541895  9.0220879921792481
  4.6164422783145875  2.0907432665539640 14.1220809724750378
 12.4074521939770559 14.0980483447658127 20.8985304790076469
  8.3008803407665717  0.7917745275384629  7.3544843389440713
  3.4091423165095702 19.9098271526907702 24.4649552737665132
  3.7516430969124861  7.7310596163063590 10.9189712609718423
  7.5749915768741589  0.7668650479832967 13.7008614552676953
 10.1892393420865943  1.0912448987789660 15.5530137780834998
 12.2512841246795308 14.6645669777246965 17.3771946189818856
  4.2549806142947544  1.9183689038820420 17.0261675454798009
  4.3989684395021618 16.9251254256466055 10.5830288425008892
  9.4828779562296717  7.4596207041571008 23.8451747684018542
  7.9261662650043920  5.1528318576295078  3.6450311791361454
  6.0195138705985221 14.9392462987169843  8.9125425363483579
  9.0512042034190170 22.1780937268296690 22.2212668262521120
 11.4157744096199867  4.8410049662184917 12.7704672342028793
  4.1214026238868957 11.8277993341105994 14.8234083968323684
  6.0124627808166959  2.9239143724198984 17.2288572612352944
  7.7019947907896693 19.8528976039275982 17.6500292111421153
  9.5204758327549683 21.2746422254828005 12.9118836894221065
  5.0145840586696675 10.2285481222106824 11.2082899949551980
  1.3649726060056000  7.1891782722385500  3.5192215133082225
 11.2779870856450817 23.2578968737544010 20.4727571902204097
  5.3150480172201284 10.0240508373938741 24.2224240788363012
  3.1407465008742856 23.0528803882435369 24.7606852090734471
  1.4181544486983466 19.8436385462263765 12.0330464267325805
  7.2056470472391911 10.6198458981792658 12.7500106989173272
  7.2149083517561250 21.9293359303517903 16.3489814225346706
  1.1653842700949797 23.2268549726469722 23.7515252776218233
  8.4426704949898035 16.9260185872791418  0.5943964005421830
  7.5101519562351298 21.2478568876385019 12.7307105403070864
  7.5260254705911622  4.8201684513223206 12.5711613742500372
  4.2546085101806597 14.4104612126995164 21.6216018407706194
  9.6310689158882337 13.7505386670821075  5.3033776489567837
  4.4340730083333666 21.9301021177927531  4.2262937427620839
  3.1594673011728878  2.3338616254431481  0.2123388229926763
  9.3892990189554624 11.8972231689361969  6.6298003106516790
  1.0269105613822633 18.5716103033961772  8.0543691795572503
  9.8914004093461667 14.5333597620638830 12.1775210076838363
  8.7977880711191290  3.8482225983628173  2.0772106838772122
  5.8399819621536802  5.1536758337885491 17.8297384841506101
  7.2073515596368125 17.9153256318137650  2.8778938939226300
  9.3813375788188260 19.2813744159794282 12.0598093662689489
  7.1080094411075159  3.6293533880400255 23.5423927887074598
  0.9977999031533488 15.0459445966621619  2.1908361009279433
 10.6911741479724522 23.1278099460191164  9.1017627432484947
 11.6632128887172843 22.2380413428126076  4.7608486515287529
  7.7916431218812452  8.2918989161457404 11.9450836614449898
  5.5105489529718410  6.5925051954539988  0.2348199953487236
 10.8098309129987982 11.6563095416204572  7.5944660150420233