Na Cl 
 1.0000000000000000
    25.0000000000000000    0.0000000000000000    0.0000000000000000
     0.0000000000000000   25.0000000000000000    0.0000000000000000
     0.0000000000000000    0.0000000000000000   25.0000000000000000
 6000 6000
Cartesian
 17.6273049752355107 12.1147187832345811  6.0392949117996242
  4.8591652325630026 17.9900636863848504  4.5001885350794479
 19.3374181605584070  3.9870245051509814  4.9604290362728900
 14.8616252769071728  4.3360289788507060  0.3195237719079124
 15.4720689125694637 14.0622135550073413  9.3116095041910238
  0.4418738770493650  1.5742515686779524  4.2230573851722557
  3.8509451802125878 22.8356438329609297 11.8329502871879146
  2.7909535345579282  7.5560553150978187  9.8108404245278056
  6.5900300776539504  8.6355151299552588  6.0513945790247030
 11.5773793363838369  6.0145066031322383  5.4062394217617067
  0.3319230979922801  3.6315079562512729  4.8771103575719099
 14.1875594221928889  0.3112087959010195  2.7431163542173413
  7.1131306617116241  0.3870313872522821  2.4182627745523408
 12.4849038023897005  8.7782067636857768  5.1605386334287653
 16.3456240745008117 20.9038201351202169  2.7525054827576994
 22.7192974173088089 18.2316927091366097 10.0296812295120592
 12.7048488183435282  5.3940898996750306  4.2344719191242346
 12.5390894420161327 19.4762519651447654  6.1833890940451015
 23.4410072320331828 23.0085487817453931  2.3396873973960464
 21.2521760707032747 10.3232203099519104  1.1818746808831928
  2.5355232076419161 14.5385508376818855 12.2119644597228447
 17.9733491237151206  3.0787222800211618  9.5426801578340488
 17.6508254337361201  7.4230648029703010  4.7250717609306196
  3.5621719218614381 19.4234907251892110  0.3043091275283644
  4.0470127384397259 18.1430949564758208  2.9984667445525837
 15.4611513905511941  5.5714209939220085  6.9363224235998109
  7.5419468840313826  7.5012799154507368 12.0057694902670438
 11.9356458363754889  2.3995719628406560  2.3029897314510257
 12.6968329947892720 20.6721434233114785  5.8572577980147944
 10.8636224692983667  9.9028414976330659  6.0285253594762302
 17.8514334339887988  4.0417250497460948  2.1364555413073187
 14.8165655042121944 22.0164292943740421  2.5635752722451346
 22.0192012479618207  1.7153744943045894  2.6495628886155611
 12.4069379234718813 23.4056797918890034  2.1301311392477396
  2.2281146735083848 22.9233176554196127 11.0999173187184699
 12.6207514026298906 16.9688240005489561 10.0124886131437911
  9.7922422153839097  3.2149139573867029  4.0294408991604307
 20.6263843787025571 17.6422528539049672  6.6718577904030019
 17.8277666065039888  6.2733555125414187  5.6430496418117784
 10.4706598610946244  5.3802854173724937  0.7285048897510883
 12.9633640930817311  0.2603124246282095  0.0354603631587049
 16.9646472167059095 24.8257711761751061 10.8680789875183628
 19.6070864422279811 11.3018345256810235 12.4664365604829221
 21.7985440729179167 18.1302335314127774  7.4174812272738118
  6.2139735818905635 13.2539908346971469  4.9119793774615879
 11.2747939938096309 20.4626539584541014  7.9125398690405024
 22.1151579274400873 14.4592864855468690  8.6139812931017854
  0.3671863234449114 21.3005381386263934 11.5722479469013617
 14.5424871423945223 15.5814022247592945  0.8135957647178303
 23.2080352251455331  7.4480290210098161  2.0118780559915481
  2.2689740998991641  9.6476970052568696 11.9217836761017253
 13.8364884833975186 24.8619404620779392  2.3166730719696140
 22.6486411866027098  5.7124232317844514  4.3486283006372997
 24.7916976221798464 24.0619359766421539  4.4789797123423680
  6.4240506763682008 19.0197177203463923  7.1978629309208424
 23.9645599732010446 22.3594695899446840 10.3026991001342889
 14.9275519139727368 12.3650181397632792  9.4299375007068456
  2.9191487598787753 12.1332072825791357 11.4073991537594228
 23.3151544692531019  7.8011647368786701  7.0878663598968954
  1.5398215742501531  4.7811984223226078  3.8009419880346127
 14.8639857954643606 19.0092643694995260  6.8531290892759014
 11.0812069201288779 16.8447066060475592  4.4919639206453992
 17.8752285744413868  3.9666506363854976  8.7486228655318836
  1.2090019887355166 19.6964246778266627  6.4047801163535478
 15.2788311081374193 16.3144344656329778 10.8500319467159141
 12.9738569087227145  1.6130649026544135  5.3909094563643025
 10.0304662296690363  7.0459220474799729 10.4059259979547587
  9.7964952512627903 24.6956879737301200  5.2138872410701058
  9.6057213305522318 18.3584025913655786 12.3361765406262958
 18.2382366122855970  5.0427426840377700  1.6881453114040872
 20.3164975369891607  9.3741041768221667  0.2844499250801513
 11.4997816442045284  1.8300941455318100  4.1961519765649697
 24.4525402548967570 23.8440640498157883 11.0922426269819230
  4.6436633703502190 21.0502654761310062  8.4059286668924287
  6.8862089220835863 11.5133534588447546  2.4657914019030480
 10.1121835690514104  5.4692450470613521 10.8007529800761262
  6.5106722789400591 24.8689921455779093 11.5754953639467697
 23.7011637066962031 20.4584184430811646  9.8193864325617373
 18.8555441302505997  5.1301971218223672 11.6115132342611957
  9.4058564558652495  9.2294537272441453  9.7143968961734313
 14.7372679737104413 14.2628341513978469  7.7267912718126510
  3.3618107104496149  1.9526105266775051  8.7625609344162800
 19.7232494688235462 13.6538225173269492  2.3975243570271529
 15.3837371107115128  4.4696197283778432 10.4493874232049055
 20.7088436096482162  3.5345473576032314  2.5687196187529340
 19.9412647611188056  2.8368401237935013  1.8859802986895575
 20.3417601507817203  8.9628541883839556  6.8451720845630266
 18.6144505015641712  3.0695797889817413  7.7137567080621405
 15.2179848007941541 18.6705469473593624 10.4412721343996342
 22.9215257092944924 17.0825961125467884  3.5964317869378406
 15.4580861285599340  4.0535627068269822  1.6142068205467459
  9.9480658583101196 22.1428806181731090  2.6972748177113361
 16.1957225488478862  1.5088784864679345  4.8603610332870675
  1.1757729114851787 11.2153233314004375 10.4696154235720709
  0.6528479515820965 22.4155222402957861  6.3411463256185634
  1.2925893423578652 24.5490770086408965 10.6686421137622744
 15.7360120051242482  0.1537701232143538  4.7072304318227021
  3.8437352882901834  1.6589902931167699  3.8249282067757697
 21.1367425607222792 20.2322180593536309  8.9444617782460814
  9.1382139637778579 10.9620892144563093  7.4167136835943506
  5.4137603404995804 14.0700427764421523  0.1044718316311351
 11.7161484489758259 13.3069819367057551  0.2227051068203082
 11.0094606578394121 11.0052763070004413  7.8394458782111514
 15.1337501896236795  2.9394370051750154  1.5588729882421313
 24.9566267709977119 21.0261401585424963  5.6688223118748615
  1.7931913616104012 13.1672145860116991  0.6877735493182081
 18.8200867822487332  9.1985492544241954  0.0086595537181290
 16.0822386811870324 19.1855147104642896  0.4728693866510267
 20.0315628876125267 20.4774521037365531  7.2687537501420607
  6.8885572752396378  0.9821249525910826  3.2870390991619973
 15.5322792313677631  1.0170415979889416  9.2090687000700591
  3.6352841549717283 23.2207926098354136 10.9306967518900962
 24.4406180337260537 23.4672928338252440  7.3953290504381668
 11.5907014285170948  4.9189090868080543 11.0525109914841639
 19.1044677487129668 13.7894526188212687  4.6650822645356333
 12.0752401007689727 23.5603736241163553  2.0997502618002475
  6.0053001535149759  6.0796801261974869  3.0919405005834717
  7.4879866128265791  0.5910017763222576  3.9834273240917493
 23.9260720200492401  0.4924409675842342  0.7276710941119450
  9.9361574789211886 21.9987482284189895  3.9807375189758547
  8.5109628543774427 18.7526935216750452  0.7600093962438448
 21.9558453406001668 11.8926394669770445  2.2957607415950676
 19.7015679765965643 24.2529826584518808  9.9397703003789157
 15.4388769368822114  6.2046781793258514  3.5130799647947213
 13.6699366097664168  0.6246003441627139 11.3289921713662292
 12.7428483044462499 19.0514528281294986 11.3838411862421029
  6.4376343420881943 22.3203874762730621  6.8761568606720100
 10.1367146289612702 17.7627689520655068  6.9288886824757272
  7.6641727390997918 11.7512260501977170  1.4281128365211715
  4.5848868226562098  8.1928283829208599 10.9333158754433111
 12.4798371514677235 23.6230047180424485  3.4201480697002955
 14.8572149057207703  5.2109204489788601  2.4699929938511889
  1.3444953138681572 21.9327401821188346 11.7821204356300271
 19.1963232677412812  7.6051609276817933  9.9698557739471347
  1.7319854589793766  9.4796090663781438 11.8947893087262244
  6.4478235232866483 18.5699558786907986  2.6242265781034839
 10.7521963705086119 12.1643991382626808 11.0281583904419840
  0.5161363168229053 24.7030768425683860  4.8062465234223035
  7.1706383173217247 16.9181992262220930  9.5871975573651493
 14.0586932720889770  9.4578239994392845  3.8239792880248182
 14.2397876662387457  3.1113064745959389  8.3639592669736409
 21.1268000519493597  3.1284731128851293  2.6238041301834416
 21.5520319862067851  0.0015921774327719  0.8798630562982814
  0.7167744104362905 21.8275162027345608  2.5324096798582048
 24.4189787536947911  9.7759133483171059  1.8878225827998589
  7.2682982344498379  8.2884263984339430  1.7912392396439052
 10.7158013902212499  0.4739654485480699  7.9686468737053904
  8.0960127329900917 19.6860033644763774  6.3292733772328464
  2.1953023049027203 21.4458385000218819  7.6038349338825029
 20.3074675264337436  7.6067167718926063 10.5443925995120740
 14.2128399988696170  0.2018610016451501  8.8389273250191138
 11.7031031924780002 19.0553559777584631  6.6839590932633541
 24.6009609543722867 18.3507601350316598 10.6127947385482457
 13.4823415607597425 22.7146116889615577  7.2393281884674572
 17.7777271451324808 15.2601282416191566  0.9876784465683989
 24.8233029501621161  5.2526833746827597  3.4247391465700883
 19.1816728069361631 11.3748661761055079  1.1879109026342216
  5.4370811467231626  6.0228329761991430  0.3769154894989521
 19.6372640177781044 18.4963467966282487  9.0503054654925634
 16.9679170669838406  4.7821447973987761 11.7538049406156890
 17.3992738557976097  4.5956943904029641  7.4178097513121601
 17.2569806069401004 13.0730608422649386  9.4667879734033669
 16.6109379807538069  5.0346425292243442  8.6184943367813229
  2.0686365673638121 17.5747876835869548  2.2282990229913495
  2.0433588312209392 17.7318763303253206  9.8227418888466165
  6.6458516901572482 21.8293564728597893  5.4971196772517263
  5.1808311395257860 24.2289620098792753  8.0822500205050449
  1.7521892566011239 24.0448356950864373 10.7767636588666420
  0.1336291433002935 20.9050114480336262  0.2637035505677124
 14.1311487830854698  2.2175973175175479 10.5790577587108405
  4.4475013061647779 24.1544527114156899  6.9433603817333278
 19.1158715840968618  5.4537139159877377  5.2848930029593841
 21.3934014767377647  8.8986195316066130  4.5492338561682191
 17.9468412385074600  7.5606955949034047 11.3054317707686831
 20.7835426185203467  9.0007894714366596  0.6343232179686070
 22.1406487967542596 17.8843270488476023  3.4423549908410545
 11.3206621312166860 16.3684393588306563  2.1801519334223829
  8.6270900599784639 20.5026380580396577  6.4189207362564833
 15.6016285254627594 16.5706274526056951  1.2677979719675136
 15.7610297160041650 20.6264368820127260  9.2623379939526025
 19.2293287227998171 12.3278440965003533  9.5378649407242726
  5.7921175057031764 23.1189183532814120  4.8303818003415975
 18.4538366824639191  3.6331221711044770  5.9421648764713497
 14.9301577079715955  6.1605978785830535  8.0842726726943042
 19.7416199463147741 22.4064377124451255  4.9993165326301554
 22.0259278300339005 14.7690393797909110 11.6224280729062990
  1.2972426723210340  2.7575936996180537 10.9386547403124403
 16.9404408624118368 17.9895745557684350  0.3897794000291169
  2.0447525787375644 16.1565908422491482  9.4111428407072761
 21.1554475343578723  9.6067099527487105  4.9870879237945598
 10.9734704303431663  6.1175227775785714  8.6026613815234327
 19.8596785286719353  6.6170313892034027  6.2232791707959398
 14.3060471347095657 16.7341930636829659  0.7914106598083911
  2.4779187992577993 21.3812591258349158  2.4110639537270480
 20.5037405809870634  6.3679446495920171  0.5228628465080927
  0.5117225230260392  0.5204444986397607 11.0553443192296399
 14.3439465851261971  3.7102562159813273  4.1381109990822669
 23.4631231513168323 19.7108041819700972  2.2429431857275510
 19.2922450459060464 19.7624865429301231 11.5556635132784322
  7.0733353412120294  6.5470797505914602  5.8846840953383062
  7.7711807018011729 10.2340551722953350  1.8826403838501500
  8.0738627389417328 22.4110533936932015  6.2871939008064537
 12.7357817081435503  0.2831687686420832  4.6087472837459051
 18.4311958348523817 23.1083963639607646  3.9088445442769881
 16.9005113266876492 21.8938676393096650 10.1167069387699975
 12.9870398146971322 23.1781656146879165  2.7147430298918591
  3.3722067849581165  1.6794347910580387  0.6302666562284653
 10.7833824636337265 11.3090662920424094 10.7385851783857600
 16.8021862589764339 19.3444546169342715 11.1243734071610376
  9.6877083111031475 21.3135847106173557  8.7091156729539456
 23.2142306739530682 11.5749371291952841  7.4841651925743395
 22.7287831938493916  2.6591390267289889  8.5748111170599284
  8.7008888524495482 10.8389431195514945 10.0585051509824144
  6.5921451228634202 19.1830799654978712  5.0124900613503947
 14.8409222321775385  6.3799562078807295  1.4619929257137667
 18.4302049425571255  6.4544695575975215  2.6349272707639857
 20.4452794606076935 23.8118944334852962  3.2548717936756422
  9.2604726130424400 15.7632074042983383  3.6134220210897836
 11.5678169119953260 20.2988399054384026  6.3011453516321012
  6.6998497614170667  4.3749401366221443  2.3094381041868766
  4.4524341376742509  7.0605518911315830  8.3478171242623667
  3.5248149552032420 16.5649521008902028  3.5749798308010119
 19.3720325452145339 10.7509874206739422  8.4227896334709556
 23.6507394926858794 22.9786535715584890  1.1152885917645361
 14.3107235731141280 20.3310933291591205  2.3427915886709427
  0.5964615850692901 24.7298602595598709  4.8806912113822492
  9.5543794029179860  5.4546248425983945  0.4398647756035741
 10.6145671385408225 24.0298974556056315 10.2432681819159850
 17.2166669239367671 10.5209906052430124  0.6445511596484814
 15.9426804240526074 23.6298870521736717 11.2558429414666463
  3.9046344598311160  0.1913663815666765  8.1473874955658747
 16.2832759512976146 23.0189134590415811  1.9392530559279271
 11.0522219613437631  4.6945043046467498  0.2669240989568290
 22.3866623348494365  2.6338618144550647  8.6577577731375381
 21.8697862452221017 15.4974234479001822  7.5979444291898721
 22.3040427883640113 14.0471440339680509  7.6748894505085845
  8.7339893955429968 17.1597708911447668  2.1346837350328842
  5.2590693953722107 14.1793280207455741  5.9830223354431906
 13.3127835874039597 22.9537534983613334  4.3675234794465467
  9.9342381162262701 14.7400194149185069  5.2531532676672343
  4.4939393664216345  4.6389314484032482  8.2604266566971436
 15.9816382178019918  3.3935265980630769  5.0007668230686182
 20.7759906285330622  7.0744937551554727  0.5082714490165335
 10.0364872417582607  8.2410722310846083  3.8504939195003800
  5.5026100857661149  7.3677114710992724  2.0633473827332947
  7.3589231969597391  6.4221713023363476  6.2165391834995427
 12.7481141536254974  7.5545799837236194  9.9128932214402088
 11.9927454912069944 12.0734707159332331  9.4111613449226894
 21.7774482312507232 13.5724226308858142  5.8535786489274253
 12.1927050464752629 22.7937161097273773  9.4933280940136537
  8.7305521749567951  9.3904044988520461 12.2642061031722491
 24.0239520319849014 20.5618015702636008  3.5994957101528979
 18.4488010795082893 18.9997432958333476  1.8427865355474811
 18.4266058930319758 20.9652441884229148  6.4295374119791848
 22.4705662682981071 12.8072712862898008  0.9042543363311580
 20.6052614355484316 12.6289472624794339  2.3583202459189669
 22.5767463201548644 22.3754028428231386  6.6977896642395240
 14.5017737473835115  6.3113722746779084  0.1169102558013565
  4.8213385067979520  7.2362837531772835 10.1105198252995123
  5.0134076178136322 10.3418325937082205  7.5902012270363990
 12.0240456014983561 13.1344243828833225  0.1353015599936720
 23.0266376272899294  8.6986018618096601 11.2007457174829899
  1.8665474731785001 21.0633817110505817  6.1282088135500477
 18.6110586713119694 21.0630887402515334  3.6662287037662362
 11.6116483982706669  6.9746297350966504 11.3009788847067298
 21.1042305320055341 23.8025514170539338 12.2408332127336568
 13.3676128291374123 19.4688193125039426  6.2230926268841573
  8.0355600840577672  3.6583327588896890  5.2993393294975810
  6.9922217316889306 18.2706444958553860 12.3610209207334645
  3.3572295347029484 24.9567897524483477 11.8826846996707296
 24.5634947319345081 13.6559596232399159  7.8566938966311017
 19.9086413578636225  4.5353016138706828 12.4071121622841396
  2.6682230190691643 19.8242814954483357  5.8495470000661669
  1.6728602241132688 15.7617866717101016  4.1742957158360143
 14.7761921117902713 18.4608228590622652 10.5248961297445440
  8.8585052331250651  9.8974531329690727 10.7474029056017297
 13.2012688965542555 23.7263443873852218  9.3350593917235081
 13.6863933939889044  2.2137727715139150  3.4394854171851117
 14.8628132603423726 24.3024665742658392  0.7778568429769281
 21.8799198264628281 10.8125233607424995  0.5400619995966842
  3.6440544429440309 20.6230225603203401  5.5700856519723709
  7.8591053992785067 12.9844456738719920  2.2892203832926326
 24.8539639985440139 20.5729235292286248  9.5628778727552284
 21.5768147942502111 16.5262469633138949  3.3163562083227358
  0.9975865604344692 16.4373212221252381  6.0288901294250463
  5.1128104934994179  6.0059642447186468  8.6205304931479176
 20.5119966741241484 20.1281020045876957  9.0051955527184511
  0.6433090780132027 12.0956741678974016  8.4978699258053076
 22.3996860195881169 21.5229312174594654  5.4524859206064074
  4.8617352637749791 11.1845782660807380  2.1034590094832049
  5.6711447684425602 14.9301232141117204  2.7904297878455506
 22.5068886403492137 23.2773783492284707 11.4489577414695916
 20.2655217588252938  2.6242005767413414  2.4695466458655644
 11.3409541250862897  7.4159803252741598  7.6906634414059400
 13.9609194192853394 16.1726799286774714  7.1157806411459026
 14.8504714783516114 16.8741366555328192  1.8073847700410453
  3.4316601596920098  0.9123039436118230  4.0461901419545478
  8.6354316601694716 10.6999124682973665  4.2144273369174572
 13.7605031434262646 22.7763315652386886  0.9023084833297452
  5.1973586460563155  2.0067642685057430  1.3435303880104472
 11.4304625831686248 11.7846353150832623  7.1828703022016533
 20.0023382063965940  4.2982349075834430  7.7170458774627404
  0.7801250325423316 11.5614219389676212  6.4092641144102735
 16.0039417869429776  3.2496131506048203  8.1241111076083552
  8.8707711472505579 16.0506718401101764  6.8208083658576060
 24.6524099375365360  8.0538201765407909  5.2778535605305130
  9.7695836726434457 22.3927861183848158  2.7781458468074658
  9.5944945861559798  4.6705095235586676 11.1267812252635050
 15.6241060074531042 19.3496672643114174  4.9288556410134099
  3.5535170247561845 23.9606350771899521  3.1968711657435032
  9.6273653021209711  7.1286327471624276  5.4652907794645484
 10.2842609213126170 22.5733045011634488  7.2643755270467958
  9.7189661509911378 21.6640997080430857  4.2618965400671103
  9.3902978158510741 22.7353910090100904  6.8583442162994031
 11.3824866881512516  5.4537677580741084  5.7373549757699278
  5.4501555303345226  0.7639983323235057  7.7599856805801322
 19.1586670205735921 24.7166147803499427  6.0723066707478406
 14.5164305178990727  2.6477143297194106  0.0673697970655606
 14.5683585617543940  0.4023474060941242  6.1264271119732534
  8.7209418689463956 22.8699913820577763  0.4725791225082144
 10.2746239911181032 10.6054187219615184 10.1362300036178112
 19.2353416090995744 13.3864241365280101  5.3152313131444302
 16.1853600368766877  2.3461397864605020  3.2856955208283365
 20.3692371236948482 20.7683379392923513  1.7278728432617489
  5.7177534004290367 23.2814010108268832  7.7533944837066313
 22.6021753147254572 24.7605145907776958 12.4843636003715748
 24.3980628901152237  8.2429941665581410  7.5014786713297852
  4.7040580793768436 11.1041400866136613  1.1412178578978487
 10.8970753782880845 22.1458828878336966  2.9268479104744496
  8.0656626881406002  9.5927995790693910  0.5912627096247220
 24.7047213254052771 12.2513160865061526  3.9347329544530871
 12.1135309860638962 17.1152827758878843  3.2788071738457338
 13.8243416505047794 20.7101200338034523 12.4937040673073856
 13.3685184704924556  9.6899335666978423  4.3567277453172615
 22.0464310944296571  9.3674040792358131  6.4801798581519074
 24.7657519182030832 12.9924892391974520  7.3833215957895497
  7.9721208698917749 12.4354602710509017  1.3903877762567196
 11.4947110933692720 16.6093462573407891  1.6412735633278608
 19.7695577027134384 16.9563095047866526  4.8469234746168013
 24.4856757691529019  5.7526521527919234  4.9123659869247893
 24.2702844898543724 10.6714209824201749  2.2862257679394564
 24.1929635168951762 11.1378284572334163  9.2414403610124438
 16.7762950722949071  9.1912800605368243  1.4219887212021225
 23.7288744881417948 11.1935221991471590  2.2638005331455733
 20.3911211552988370 13.5732571075545891  0.3661033349885155
  6.1975023039605013 11.4212226641463221  3.2446581536180608
 15.9391757175043107 14.7262840949586966  2.3283919854221828
 16.5681979812533591 11.7034709251967595  0.1179198909634351
 13.7592148449081986  1.1238983721117948  7.1799700414668628
 22.5129738671299862  0.5517848537078988 11.9240181343276141
 13.9455672884106487  8.1494163177671908  8.6200263565965116
  3.5659506351528458  7.9323250138817007  9.2932541548708709
  8.4451618294441886 12.8348674684925310  7.8087714769918337
  9.0444276035038875  9.6947320898504614  7.1811170583502930
 11.0687993867643186  8.3112933478836393  6.4536489401728137
  7.9554749689788897  7.6678036282154753 11.3877897087427744
 14.1632696796037578 17.0735051003627056  2.2001108979806823
  4.5277247226460489 22.4694135121393082  9.2164492626751073
  1.7255155610505100  0.7400345759187055  6.3805587328414237
  1.1012457316281488  8.6370114742950594  6.1259242385280892
 16.8173538832074740 24.2667150680286419  0.3400741786882627
  6.2534424272614730  1.6068749835746712  3.3739244697494080
 11.0971261566025792  9.3993140195493172 12.1353632826988402
 18.1013846388558761  4.9716252507509777  4.0527946858447015
  5.6405699838141770  1.0597179648744492  5.3399178224335975
 20.9976832829405033  8.0629363810005312  6.8858777379551332
 11.8942836238510363  7.2248660643700822  1.6619719339823220
 15.5245888817704234 21.7653359155009198  5.0003659119831241
  7.2997654007281021 12.1570900372029715 12.1061276351595879
 10.3743282544307078 11.3349722169036848  3.4390247501148954
 24.3779503621058282 20.2117359126972680 11.8227423514811054
  9.6614026858757267  4.1949415133311145  2.1910072780172376
 23.5186432714195206  2.8374627478595182  7.1182016374628070
 21.2298416747850567  9.9490281124361921  6.6577428575408382
 18.3684133777247780 17.9236394203843759  8.8038692000805714
  8.2592915083557781 13.9123809355834407  0.1931921754466333
 18.9617854631327951 15.7282788728961140 10.0915083825083016
 15.9627696340730267 11.2692398653688084  1.0572086267905350
 12.0107809370433820 15.1952088881261691  5.4378913682596250
 14.2804526790419821 11.5681766586230026  0.6725507384038301
  7.1205207063446379 24.5915115343367283  4.7671787986844683
 18.9481389797051136 11.3718319038729341  0.6894041961940957
 23.6326508683304546 18.9631440299391514  6.7808555936351684
  6.6799244525283230 19.4902736435133370 11.5145632643320415
  0.5295672572821226  0.4368931406349377  8.9315073256993234
 23.6872460570592622 11.5444809950629619  1.5460420116065265
 18.6561781417840038  4.3860289637865630  7.9943971803851417
 23.6668214661380389 18.2683813819980152  5.8429436203292306
  4.7068537467656908  8.0909218909642302  4.5621107179029430
  0.7896715895224696 22.0104051041465283  1.9392926953450278
 12.3846613277609752 24.0029356786994867  8.6699759511602927
  7.5716223020905735  6.2560312362648691 10.0584939518284493
  6.2156967614850478 17.2154702792016181  7.7044912708012809
  3.7695767142668259  5.2758366825412200 10.4935617351408865
  5.5841650257744666  3.0615881914559697  3.0563669002411733
 11.7169847067990283  2.3619671712452392 11.2911235593683656
 14.8273246082604508  2.8446910334027797  5.3610992002585434
  7.9885174906759140 13.0134657900843145  8.6597669735363532
 14.4070484509724430 14.2633154938292286 11.7717523939310365
 20.6849695978150550  2.2840304776486153  6.3501189201372297
  2.8973814928426322 21.2907502061178668  4.3193571115002767
 15.8699459703033536  1.1819228884679838  7.2889932407014966
 12.2187929401261712 11.2529447005376895  1.6207909684725064
  6.2676142348291410 14.7924447733873698  8.3096531607721253
 20.6813461942045684 16.3854859962060502  7.9315691175551946
 11.7643175002952649 22.8842274625246525  7.6054813259306737
  0.6492898336841212 12.6142347290246892  3.7215453589901073
 21.0256970934689491  3.8910499326377406 10.9381089212550346
 23.5932790667718635  7.2412752347259204  2.0564350192697880
  0.0067377346599185 13.2411064292495642  9.1378781987064883
 10.6377713198949451 14.0225734743394757  1.1961916117911187
  8.7848387466672992 21.7848152372915393  6.1948465794300880
  8.5729209629692704 10.0826246245217614  4.3360321686305259
  1.3853163464857807  8.0118353865164504  2.4586705909849473
 20.7532453680193285 24.7949003008170514  1.4446779160968390
 11.4034716791489501  8.1485114563948073  1.0160238137543312
  2.6244755380900928  9.5603686801904662  3.0582039805865864
 23.4686034375189827 11.8179743815297140 12.3477151849529321
  6.0982270078259644 17.9013205309870287  8.7470821494921491
 24.4193730291069357 16.4025002002727724  0.9104329922285085
  3.2946007690832952 22.3551259829453777 11.3011976814834387
  3.4588653843192687  8.1505142539509183  5.3465330765333645
 18.3628345925187837 24.1609964632247554 11.9337787092354990
 17.0375322420324835 24.8043918399160681  6.2068267346857242
 11.2738597259269380  4.7604136540370128  4.1361417000350276
  7.2671049774005567 13.2333551711558162  6.5001808078960428
 22.0776766175765893  9.5109116097497335 12.4457125318915178
  0.1810470014722305 17.8569537437786146 10.9107858435766705
  5.1553459862039173 20.8999901292379882  8.0670510514485887
 15.8540433928622129  8.9073038352221729  2.5277792895342128
 18.7730384030253816 18.4564396475704591 11.1905783583366212
 10.1009371271826964 16.4502965595807389  2.5671384367473138
 16.7914128242020553 13.2753363639467103  9.2891344261770765
 19.9646015162414869 20.0576834706858200  4.7430459082792726
  7.7451608994720322 22.9192374264445320  1.8117131266331827
 23.9250386478030279  8.1245536255298898 12.1863921404287190
  8.3854083709350817  8.5584903059333985  8.7732859113129251
  5.2326228726807162 19.6926211447886317 11.9417902312436102
 11.3368330226916978 13.1526123793575032  2.9781299307840547
  6.8594933752247567 12.5051574024861480 12.0902317923448201
  1.0514678787679728 22.0206384533181030  0.4352424586821545
  5.2400061419419979 18.7832276191484304  7.3532975138413237
 23.7426302622736571 17.3868180333575317 10.1253433200183061
  3.2903590953398307  1.0653153765319452  2.3777666862019182
  1.2493899912803388 23.4975834486529145 11.9425107547745633
 10.5565109921416784 23.2802449251898764 10.5382288331343936
  7.0239969794750197  2.3172340366603965 10.3762270756420811
 11.4969206328955096  3.7450770748523423  9.2551985216584054
  4.2431070256247683 13.8997796754817386  6.7985029107884047
 24.8768432414517022  5.1043590787352802  6.9815181519284470
  1.7511589227948148  6.7280154124498432  1.3775185222632804
  3.9076073579059947  0.1568643260546328  5.7093640001068655
 14.5614995921782668 10.1236457401531030 11.5569773766011821
  1.2375370721507524 24.2855716376963890  8.8012573815888064
 20.4656247261285884 15.7547720432070886  7.7268650907682561
  5.8431610841505046  6.0083413175346063  3.5962619020586195
  9.7475757984200389  2.5064440455783363  0.4025370175496382
  5.8793079135377466 13.5281028289013090  8.4121226721499696
 15.0915016490460854 17.8682155175452202  5.5491016912502706
  2.5042496866100699 13.9244828554449995  1.8916757320480773
 11.7880570640731879 21.8750758780516108  2.2001412067097341
  5.5465223409917774 20.4009850488048912  2.1778576319002814
  6.5064386960614655  3.7151647050469951  7.8865988624219767
  0.1341614523595951  4.8515298077145266  7.3307391290230397
 15.4650829804432952 21.6496523104839262  7.8531911516809796
  2.1673726044443309  2.0313628958684218  8.0580954302838510
 14.8197935613895737  1.2703862745642598  0.6910583007573422
  4.2337216572993075  6.1598942294530081  2.1711572083510258
  6.2784015113852929 21.0942018526113593  2.6252684195643612
 20.7726552364289070  1.0165586606676498  5.1507049205949089
 10.7952008772619070  9.9411441408754992  2.9047878472622428
 16.5386978730273881 15.8951519713248839 12.4095910286575517
 10.9928372949328441  6.6164159363212143  1.0513208753202674
 14.0999030154663618  2.0699809431424274  7.5848556973900898
  7.3394120705031849  3.4986689470236509  1.0644963132517862
  6.9790736455372882 22.2907605451954360  7.9062415498337897
 10.4034561130234309  0.8868915847907268  2.9934327888737582
 21.2497652025193737 19.8037587431276947  8.3865978735902331
  7.1009228621148139 20.2105435636874979  1.8028374478699811
  0.5779727015541739 13.9871950210012468  3.8933589839811247
 21.3688875415217510 21.8929103561178380  2.0721776362378979
  4.1790645006946594 12.5370631751311308  5.2103922144558243
 17.1238967180829000  1.3321408193242461  7.1453751913017474
  9.6416804169498764 22.7227676765633611  0.7781700001927884
  7.4063864803902746  4.1375759193383042  7.6192381594419656
 13.0714914822352526 17.5573419279220246  5.6228912927316923
  7.8679138831179189 11.0286335628613053  4.1221455049804154